272
500
350	1
349	4
348	2
347	2
346	1
345	1
344	1
343	2
340	4
338	4
337	3
336	5
335	1
334	5
333	3
332	3
331	3
330	1
329	1
328	4
327	5
325	4
324	1
323	2
322	2
321	2
320	1
319	2
318	2
317	3
316	1
315	3
314	4
313	3
312	4
311	1
310	2
309	5
308	2
307	6
306	6
305	1
303	5
302	2
301	1
300	3
299	4
297	3
296	2
295	2
294	2
293	1
292	7
290	1
289	3
288	2
287	2
286	4
285	3
284	5
283	3
282	1
281	2
280	5
279	2
278	2
277	2
276	4
275	1
274	1
273	4
272	2
271	1
269	2
268	3
266	2
265	1
264	5
263	1
262	1
261	2
260	2
258	2
257	2
256	4
255	2
254	2
253	2
252	6
250	2
249	2
248	4
247	1
246	3
244	1
243	4
242	1
241	1
240	7
239	2
238	1
237	2
236	2
235	3
234	5
233	3
232	3
231	1
230	1
229	3
228	1
227	6
226	3
225	3
224	1
223	2
222	5
221	1
220	1
219	3
218	2
217	3
216	2
215	2
214	1
213	4
212	1
210	4
208	2
207	2
206	1
204	1
203	4
202	1
201	4
200	4
199	4
198	2
197	1
196	4
195	4
194	3
193	3
192	9
191	6
188	2
187	2
185	2
184	2
183	3
182	1
181	1
180	4
179	4
178	4
177	1
176	2
175	2
174	4
172	1
171	2
168	5
167	6
166	3
165	1
164	4
163	3
162	1
161	2
160	3
159	3
158	5
157	3
156	3
155	2
153	3
152	2
151	1
150	5
149	3
147	4
146	3
145	3
144	3
143	1
142	1
141	4
140	2
139	3
138	2
137	7
136	2
135	4
134	1
133	3
132	3
131	1
130	5
129	2
128	4
127	2
126	2
125	2
124	5
122	2
121	2
120	1
119	5
118	1
117	3
116	2
114	4
113	2
112	2
111	2
110	2
109	6
107	1
106	2
105	4
104	2
103	2
102	2
101	2
100	4
99	3
98	1
97	2
96	1
95	3
94	4
93	2
92	3
91	4
90	1
89	1
88	4
87	3
86	4
85	4
84	2
83	4
82	4
81	7
80	3
79	4
78	2
77	1
75	3
74	3
73	2
72	4
71	6
70	2
68	3
67	6
66	5
65	6
64	1
63	3
62	2
61	1
59	4
58	5
57	1
56	3
55	4
54	4
53	1
52	1
51	6
50	4
